c SAT problem
p wcnf 48 137
1 60 -3120 0
1 -60 3165 0
1 60 -3135 0
1 -90 -3105 0
1 -90 -3075 0
1 90 3090 0
1 -3120 -196 0
1 -3120 -105 0
1 3120 -150 0
1 3135 -165 0
1 3135 -105 0
1 -3135 181 0
1 -3135 120 0
1 -3150 -105 0
1 -3165 196 0
1 -3165 75 0
1 3165 -181 0
1 -3165 151 0
1 -3165 -121 0
1 -120 3060 0
1 -120 -121 0
1 135 -3105 0
1 -150 -3105 0
1 -150 -3045 0
1 150 -3015 0
1 -150 -3000 0
1 150 -3135 0
1 165 3120 0
1 -3060 225 0
1 3060 165 0
1 3060 -120 0
1 -3060 90 0
1 -3060 -255 0
1 3075 -135 0
1 -3075 -180 0
1 3075 120 0
1 3075 -90 0
1 3075 255 0
1 3090 -3105 0
1 3090 -226 0
1 -3090 -135 0
1 3090 -105 0
1 3090 -255 0
1 -3105 226 0
1 3105 -165 0
1 3105 135 0
1 -3105 240 0
1 3105 3090 0
1 -3105 -255 0
1 -180 -3075 0
1 180 -3015 0
1 195 3075 0
1 -195 -196 0
1 -195 3015 0
1 195 3000 0
1 -210 3075 0
1 210 -3060 0
1 -210 -3000 0
1 225 226 0
1 225 -3075 0
1 225 -3030 0
1 3000 -180 0
1 -3015 165 0
1 3030 225 0
1 -3030 3045 0
1 -3030 -150 0
1 -3045 225 0
1 -3045 -195 0
1 -3045 -210 0
1 3045 -180 0
1 3045 -285 0
1 -121 -3165 0
1 136 -3270 0
1 136 3150 0
1 -136 121 0
1 -136 3165 0
1 151 -166 0
1 151 -3270 0
1 151 -3240 0
1 151 -3255 0
1 166 3270 0
1 166 3210 0
1 166 -3180 0
1 -166 3150 0
1 -166 -151 0
1 166 -3225 0
1 166 -3165 0
1 -3255 -3240 0
1 -3270 166 0
1 -3285 166 0
1 -3285 136 0
1 -3285 -151 0
1 -181 -3120 0
1 -181 180 0
1 181 -3255 0
1 196 -3090 0
1 -196 3255 0
1 -211 -3151 0
1 -211 3121 0
1 -211 -210 0
1 -211 3225 0
1 211 -3166 0
1 -226 3105 0
1 -226 -3210 0
1 -226 -3151 0
1 -226 211 0
1 -3180 226 0
1 3180 -196 0
1 -3180 -211 0
1 -3180 181 0
1 3195 226 0
1 -3195 3180 0
1 3195 -211 0
1 3195 181 0
1 -240 -3105 0
1 240 -3090 0
1 240 -3121 0
1 -240 -3030 0
1 -240 3166 0
1 255 3105 0
1 255 3136 0
1 -255 3045 0
1 -270 3180 0
1 -270 -3030 0
1 270 3195 0
1 -270 -285 0
1 -285 -3045 0
1 285 -270 0
1 -3136 226 0
1 -3136 3121 0
1 -3136 -3135 0
1 3151 226 0
1 -3151 -240 0
1 -3151 -285 0
1 -3166 226 0
1 -3166 3151 0
1 -3166 240 0
